1 2
1 6
1 21
2 3
2 7
2 22
3 4
3 8
3 23
4 5
4 9
4 24
5 10
5 25
5 81
6 7
6 11
6 26
7 8
7 12
7 27
8 9
8 13
8 28
9 10
9 14
9 29
10 15
10 30
10 82
11 12
11 16
11 31
12 13
12 17
12 32
13 14
13 18
13 33
14 15
14 19
14 34
15 20
15 35
16 17
16 36
17 18
17 37
18 19
18 38
19 20
19 39
20 40
21 22
21 26
21 41
22 23
22 27
22 42
23 24
23 28
23 43
24 25
24 29
24 44
25 30
25 45
26 27
26 31
26 46
27 28
27 32
27 47
28 29
28 33
28 48
29 30
29 34
29 49
30 35
30 50
31 32
31 36
31 51
32 33
32 37
32 52
33 34
33 38
33 53
34 35
34 39
34 54
35 40
35 55
36 37
36 56
37 38
37 57
38 39
38 58
39 40
39 59
40 60
41 42
41 46
41 61
42 43
42 47
42 62
43 44
43 48
43 63
44 45
44 49
44 64
45 50
45 65
46 47
46 51
46 66
47 48
47 52
47 67
48 49
48 53
48 68
49 50
49 54
49 69
50 55
50 70
51 52
51 56
51 71
52 53
52 57
52 72
53 54
53 58
53 73
54 55
54 59
54 74
55 60
55 75
56 57
56 76
57 58
57 77
58 59
58 78
59 60
59 79
60 80
61 62
61 66
62 63
62 67
63 64
63 68
64 65
64 69
65 70
66 67
66 71
67 68
67 72
68 69
68 73
69 70
69 74
70 75
71 72
71 76
72 73
72 77
73 74
73 78
74 75
74 79
75 80
76 77
77 78
78 79
79 80
81 82
